K-Spacing Value to Generate K-Mesh: 0.010
0
Monkhorst-Pack
  32  32  16
0.0  0.0  0.0
