√7x√7 PdCrO2 slab with 4↑3↓ CrO2 layers
1.0
   7.3074999999999992   -2.5313922552619146    0.0000000000000002
   1.4615000000000009    2.5313922552619146    0.0000000000000004
   0.0000000000000000    0.0000000000000000   54.2579999999999956
Cr Pd O
18 18 36
direct
   0.8888888888888888    0.5555555555555555    0.2361111111111110 Cr
   0.2222222222222223    0.8888888888888888    0.2361111111111110 Cr
   0.5555555555555557    0.2222222222222223    0.2361111111111110 Cr
   0.0000000000000000    0.0000000000000000    0.3472222222222222 Cr
   0.3333333333333334    0.3333333333333333    0.3472222222222222 Cr
   0.6666666666666667    0.6666666666666666    0.3472222222222222 Cr
   0.1111111111111111    0.4444444444444444    0.4583333333333333 Cr
   0.4444444444444445    0.7777777777777777    0.4583333333333333 Cr
   0.7777777777777779    0.1111111111111109    0.4583333333333333 Cr
   0.8888888888888888    0.5555555555555555    0.5694444444444444 Cr
   0.2222222222222223    0.8888888888888888    0.5694444444444444 Cr
   0.5555555555555557    0.2222222222222223    0.5694444444444444 Cr
   0.0000000000000000    0.0000000000000000    0.6805555555555555 Cr
   0.3333333333333334    0.3333333333333333    0.6805555555555555 Cr
   0.6666666666666667    0.6666666666666666    0.6805555555555555 Cr
   0.1111111111111111    0.4444444444444444    0.7916666666666666 Cr
   0.4444444444444445    0.7777777777777777    0.7916666666666666 Cr
   0.7777777777777779    0.1111111111111109    0.7916666666666666 Cr
   0.8888888888888888    0.5555555555555555    0.4027777777777778 Pd
   0.2222222222222223    0.8888888888888888    0.4027777777777778 Pd
   0.5555555555555557    0.2222222222222223    0.4027777777777778 Pd
   0.0000000000000000    0.0000000000000000    0.1805555555555556 Pd
   0.3333333333333334    0.3333333333333333    0.1805555555555556 Pd
   0.6666666666666667    0.6666666666666666    0.1805555555555556 Pd
   0.1111111111111111    0.4444444444444444    0.2916666666666667 Pd
   0.4444444444444445    0.7777777777777777    0.2916666666666667 Pd
   0.7777777777777779    0.1111111111111109    0.2916666666666667 Pd
   0.8888888888888888    0.5555555555555555    0.7361111111111112 Pd
   0.2222222222222223    0.8888888888888888    0.7361111111111112 Pd
   0.5555555555555557    0.2222222222222223    0.7361111111111112 Pd
   0.0000000000000000    0.0000000000000000    0.5138888888888888 Pd
   0.3333333333333334    0.3333333333333333    0.5138888888888888 Pd
   0.6666666666666667    0.6666666666666666    0.5138888888888888 Pd
   0.1111111111111111    0.4444444444444444    0.6249999999999999 Pd
   0.4444444444444445    0.7777777777777777    0.6249999999999999 Pd
   0.7777777777777779    0.1111111111111109    0.6249999999999999 Pd
   0.8888888888888888    0.5555555555555555    0.4382344444444444 O
   0.2222222222222223    0.8888888888888888    0.4382344444444444 O
   0.5555555555555557    0.2222222222222223    0.4382344444444444 O
   0.0000000000000000    0.0000000000000000    0.2160122222222222 O
   0.3333333333333334    0.3333333333333333    0.2160122222222222 O
   0.6666666666666667    0.6666666666666666    0.2160122222222222 O
   0.1111111111111111    0.4444444444444444    0.3271233333333333 O
   0.4444444444444445    0.7777777777777777    0.3271233333333333 O
   0.7777777777777779    0.1111111111111109    0.3271233333333333 O
   0.0000000000000000    0.0000000000000000    0.4784322222222222 O
   0.3333333333333334    0.3333333333333333    0.4784322222222222 O
   0.6666666666666667    0.6666666666666666    0.4784322222222222 O
   0.8888888888888888    0.5555555555555555    0.3673211111111110 O
   0.2222222222222223    0.8888888888888888    0.3673211111111110 O
   0.5555555555555557    0.2222222222222223    0.3673211111111110 O
   0.1111111111111111    0.4444444444444444    0.2562100000000000 O
   0.4444444444444445    0.7777777777777777    0.2562100000000000 O
   0.7777777777777779    0.1111111111111109    0.2562100000000000 O
   0.8888888888888888    0.5555555555555555    0.7715677777777777 O
   0.2222222222222223    0.8888888888888888    0.7715677777777777 O
   0.5555555555555557    0.2222222222222223    0.7715677777777777 O
   0.0000000000000000    0.0000000000000000    0.5493455555555555 O
   0.3333333333333334    0.3333333333333333    0.5493455555555555 O
   0.6666666666666667    0.6666666666666666    0.5493455555555555 O
   0.1111111111111111    0.4444444444444444    0.6604566666666666 O
   0.4444444444444445    0.7777777777777777    0.6604566666666666 O
   0.7777777777777779    0.1111111111111109    0.6604566666666666 O
   0.0000000000000000    0.0000000000000000    0.8117655555555556 O
   0.3333333333333334    0.3333333333333333    0.8117655555555556 O
   0.6666666666666667    0.6666666666666666    0.8117655555555556 O
   0.8888888888888888    0.5555555555555555    0.7006544444444445 O
   0.2222222222222223    0.8888888888888888    0.7006544444444445 O
   0.5555555555555557    0.2222222222222223    0.7006544444444445 O
   0.1111111111111111    0.4444444444444444    0.5895433333333332 O
   0.4444444444444445    0.7777777777777777    0.5895433333333332 O
   0.7777777777777779    0.1111111111111109    0.5895433333333332 O
