Generated by VASPKIT code               
    1.000000000000000     
     4.3919999599999997    2.5357223592000002    0.0000000000000000
     0.0000000001000000    5.0714447184000004    0.0000000000000000
     0.0000000000000000    0.0000000000000000   36.2434005738000025
  O               Cr              Pd            
    36    18    18
Direct
  0.3333333333333357  0.3333333333333357  0.3031850039712722
  0.3333333333333357  0.3333333333333357  0.8031850039712722
  0.0000000000000000  0.0000000000000000  0.3031850039712722
  0.0000000000000000  0.0000000000000000  0.8031850039712722
  0.6666666666666643  0.6666666666666643  0.3031850039712722
  0.6666666666666643  0.6666666666666643  0.8031850039712722
  0.3333333333333357  0.3333333333333357  0.1968150039474068
  0.3333333333333357  0.3333333333333357  0.6968150039474068
  0.0000000000000000  0.0000000000000000  0.1968150039474068
  0.0000000000000000  0.0000000000000000  0.6968150039474068
  0.6666666666666643  0.6666666666666643  0.1968150039474068
  0.6666666666666643  0.6666666666666643  0.6968150039474068
  0.6666666667425645  0.3333333332165154  0.4698516706296658
  0.6666666667425645  0.3333333332165154  0.9698516706296658
  0.3333333334092288  0.9999999998831797  0.4698516706296658
  0.3333333334092288  0.9999999998831797  0.9698516706296658
  0.0000000000758931  0.6666666665498440  0.4698516706296658
  0.0000000000758931  0.6666666665498440  0.9698516706296658
  0.6666666667425645  0.3333333332165154  0.3634816706306339
  0.6666666667425645  0.3333333332165154  0.8634816706306339
  0.3333333334092288  0.9999999998831797  0.3634816706306339
  0.3333333334092288  0.9999999998831797  0.8634816706306339
  0.0000000000758931  0.6666666665498440  0.3634816706306339
  0.0000000000758931  0.6666666665498440  0.8634816706306339
  0.3333333333257471  0.6666666667099008  0.1365183372880523
  0.3333333333257471  0.6666666667099008  0.6365183372880523
  0.9999999999924114  0.3333333333765651  0.1365183372880523
  0.9999999999924114  0.3333333333765651  0.6365183372880523
  0.6666666666590757  0.0000000000432294  0.1365183372880523
  0.6666666666590757  0.0000000000432294  0.6365183372880523
  0.3333333333257471  0.6666666667099008  0.0301483372890203
  0.3333333333257471  0.6666666667099008  0.5301483372890203
  0.9999999999924114  0.3333333333765651  0.0301483372890203
  0.9999999999924114  0.3333333333765651  0.5301483372890203
  0.6666666666590757  0.0000000000432294  0.0301483372890203
  0.6666666666590757  0.0000000000432294  0.5301483372890203
  0.3333333333333357  0.3333333333333357  0.0000000039455443
  0.3333333333333357  0.3333333333333357  0.5000000039455443
  0.0000000000000000  0.0000000000000000  0.0000000039455443
  0.0000000000000000  0.0000000000000000  0.5000000039455443
  0.6666666666666643  0.6666666666666643  0.0000000039455443
  0.6666666666666643  0.6666666666666643  0.5000000039455443
  0.6666666667425645  0.3333333332165154  0.1666666706315283
  0.6666666667425645  0.3333333332165154  0.6666666706315283
  0.3333333334092288  0.9999999998831797  0.1666666706315283
  0.3333333334092288  0.9999999998831797  0.6666666706315283
  0.0000000000758931  0.6666666665498440  0.1666666706315283
  0.0000000000758931  0.6666666665498440  0.6666666706315283
  0.3333333333257471  0.6666666667099008  0.3333333372871579
  0.3333333333257471  0.6666666667099008  0.8333333372871579
  0.9999999999924114  0.3333333333765651  0.3333333372871579
  0.9999999999924114  0.3333333333765651  0.8333333372871579
  0.6666666666590757  0.0000000000432294  0.3333333372871579
  0.6666666666590757  0.0000000000432294  0.8333333372871579
  0.3333333333333357  0.3333333333333357  0.2500000039579646
  0.3333333333333357  0.3333333333333357  0.7500000039579646
  0.0000000000000000  0.0000000000000000  0.2500000039579646
  0.0000000000000000  0.0000000000000000  0.7500000039579646
  0.6666666666666643  0.6666666666666643  0.2500000039579646
  0.6666666666666643  0.6666666666666643  0.7500000039579646
  0.6666666667425645  0.3333333332165154  0.4166666706163511
  0.6666666667425645  0.3333333332165154  0.9166666706163511
  0.3333333334092288  0.9999999998831797  0.4166666706163511
  0.3333333334092288  0.9999999998831797  0.9166666706163511
  0.0000000000758931  0.6666666665498440  0.4166666706163511
  0.0000000000758931  0.6666666665498440  0.9166666706163511
  0.3333333333257471  0.6666666667099008  0.0833333373023351
  0.3333333333257471  0.6666666667099008  0.5833333373023351
  0.9999999999924114  0.3333333333765651  0.0833333373023351
  0.9999999999924114  0.3333333333765651  0.5833333373023351
  0.6666666666590757  0.0000000000432294  0.0833333373023351
  0.6666666666590757  0.0000000000432294  0.5833333373023351
 
  0.00000000E+00  0.00000000E+00  0.00000000E+00
  0.00000000E+00  0.00000000E+00  0.00000000E+00
  0.00000000E+00  0.00000000E+00  0.00000000E+00
  0.00000000E+00  0.00000000E+00  0.00000000E+00
  0.00000000E+00  0.00000000E+00  0.00000000E+00
  0.00000000E+00  0.00000000E+00  0.00000000E+00
  0.00000000E+00  0.00000000E+00  0.00000000E+00
  0.00000000E+00  0.00000000E+00  0.00000000E+00
  0.00000000E+00  0.00000000E+00  0.00000000E+00
  0.00000000E+00  0.00000000E+00  0.00000000E+00
  0.00000000E+00  0.00000000E+00  0.00000000E+00
  0.00000000E+00  0.00000000E+00  0.00000000E+00
  0.00000000E+00  0.00000000E+00  0.00000000E+00
  0.00000000E+00  0.00000000E+00  0.00000000E+00
  0.00000000E+00  0.00000000E+00  0.00000000E+00
  0.00000000E+00  0.00000000E+00  0.00000000E+00
  0.00000000E+00  0.00000000E+00  0.00000000E+00
  0.00000000E+00  0.00000000E+00  0.00000000E+00
  0.00000000E+00  0.00000000E+00  0.00000000E+00
  0.00000000E+00  0.00000000E+00  0.00000000E+00
  0.00000000E+00  0.00000000E+00  0.00000000E+00
  0.00000000E+00  0.00000000E+00  0.00000000E+00
  0.00000000E+00  0.00000000E+00  0.00000000E+00
  0.00000000E+00  0.00000000E+00  0.00000000E+00
  0.00000000E+00  0.00000000E+00  0.00000000E+00
  0.00000000E+00  0.00000000E+00  0.00000000E+00
  0.00000000E+00  0.00000000E+00  0.00000000E+00
  0.00000000E+00  0.00000000E+00  0.00000000E+00
  0.00000000E+00  0.00000000E+00  0.00000000E+00
  0.00000000E+00  0.00000000E+00  0.00000000E+00
  0.00000000E+00  0.00000000E+00  0.00000000E+00
  0.00000000E+00  0.00000000E+00  0.00000000E+00
  0.00000000E+00  0.00000000E+00  0.00000000E+00
  0.00000000E+00  0.00000000E+00  0.00000000E+00
  0.00000000E+00  0.00000000E+00  0.00000000E+00
  0.00000000E+00  0.00000000E+00  0.00000000E+00
  0.00000000E+00  0.00000000E+00  0.00000000E+00
  0.00000000E+00  0.00000000E+00  0.00000000E+00
  0.00000000E+00  0.00000000E+00  0.00000000E+00
  0.00000000E+00  0.00000000E+00  0.00000000E+00
  0.00000000E+00  0.00000000E+00  0.00000000E+00
  0.00000000E+00  0.00000000E+00  0.00000000E+00
  0.00000000E+00  0.00000000E+00  0.00000000E+00
  0.00000000E+00  0.00000000E+00  0.00000000E+00
  0.00000000E+00  0.00000000E+00  0.00000000E+00
  0.00000000E+00  0.00000000E+00  0.00000000E+00
  0.00000000E+00  0.00000000E+00  0.00000000E+00
  0.00000000E+00  0.00000000E+00  0.00000000E+00
  0.00000000E+00  0.00000000E+00  0.00000000E+00
  0.00000000E+00  0.00000000E+00  0.00000000E+00
  0.00000000E+00  0.00000000E+00  0.00000000E+00
  0.00000000E+00  0.00000000E+00  0.00000000E+00
  0.00000000E+00  0.00000000E+00  0.00000000E+00
  0.00000000E+00  0.00000000E+00  0.00000000E+00
  0.00000000E+00  0.00000000E+00  0.00000000E+00
  0.00000000E+00  0.00000000E+00  0.00000000E+00
  0.00000000E+00  0.00000000E+00  0.00000000E+00
  0.00000000E+00  0.00000000E+00  0.00000000E+00
  0.00000000E+00  0.00000000E+00  0.00000000E+00
  0.00000000E+00  0.00000000E+00  0.00000000E+00
  0.00000000E+00  0.00000000E+00  0.00000000E+00
  0.00000000E+00  0.00000000E+00  0.00000000E+00
  0.00000000E+00  0.00000000E+00  0.00000000E+00
  0.00000000E+00  0.00000000E+00  0.00000000E+00
  0.00000000E+00  0.00000000E+00  0.00000000E+00
  0.00000000E+00  0.00000000E+00  0.00000000E+00
  0.00000000E+00  0.00000000E+00  0.00000000E+00
  0.00000000E+00  0.00000000E+00  0.00000000E+00
  0.00000000E+00  0.00000000E+00  0.00000000E+00
  0.00000000E+00  0.00000000E+00  0.00000000E+00
  0.00000000E+00  0.00000000E+00  0.00000000E+00
  0.00000000E+00  0.00000000E+00  0.00000000E+00
